NAME: random-70-5219
TYPE: TSP
COMMENT: size=70 seed=5219
DIMENSION: 142
EDGE_WEIGHT_TYPE: EUC_2D
NODE_COORD_SECTION
+0 733 689
-0 733 689
+1 10 694
-1 621 608
+2 522 205
-2 713 765
+3 356 738
-3 640 849
+4 819 771
-4 313 872
+5 191 163
-5 40 198
+6 488 77
-6 768 318
+7 67 992
-7 993 775
+8 385 664
-8 263 316
+9 654 922
-9 517 617
+10 790 999
-10 230 227
+11 415 942
-11 420 730
+12 805 964
-12 219 536
+13 772 938
-13 167 67
+14 423 376
-14 55 305
+15 631 303
-15 213 1
+16 16 841
-16 280 321
+17 870 879
-17 651 251
+18 503 304
-18 127 585
+19 27 517
-19 897 218
+20 145 448
-20 697 48
+21 666 310
-21 221 581
+22 17 123
-22 773 31
+23 938 492
-23 693 449
+24 754 826
-24 887 487
+25 531 469
-25 543 622
+26 109 401
-26 774 659
+27 903 129
-27 429 54
+28 737 69
-28 198 344
+29 147 211
-29 682 268
+30 262 832
-30 381 938
+31 925 504
-31 329 26
+32 546 599
-32 335 194
+33 710 503
-33 562 918
+34 829 385
-34 541 108
+35 97 47
-35 28 352
+36 147 959
-36 380 345
+37 560 111
-37 481 757
+38 726 687
-38 524 89
+39 624 934
-39 327 17
+40 366 372
-40 990 810
+41 366 451
-41 605 409
+42 386 719
-42 946 852
+43 290 260
-43 446 28
+44 410 686
-44 148 121
+45 187 603
-45 581 327
+46 293 734
-46 362 94
+47 102 656
-47 563 912
+48 914 283
-48 107 382
+49 843 15
-49 777 600
+50 471 997
-50 445 17
+51 574 162
-51 841 679
+52 778 423
-52 284 415
+53 163 214
-53 186 311
+54 786 74
-54 122 822
+55 637 959
-55 459 964
+56 192 644
-56 258 816
+57 237 318
-57 175 325
+58 400 774
-58 895 330
+59 905 716
-59 658 569
+60 720 427
-60 565 591
+61 362 297
-61 586 405
+62 901 737
-62 895 134
+63 660 978
-63 314 471
+64 490 592
-64 352 911
+65 508 450
-65 0 798
+66 862 442
-66 774 182
+67 722 592
-67 480 560
+68 802 29
-68 552 889
+69 974 946
-69 462 466
+70 980 55
-70 679 786
PRECEDENCE_SECTION
+0 -0
+1 -1
+2 -2
+3 -3
+4 -4
+5 -5
+6 -6
+7 -7
+8 -8
+9 -9
+10 -10
+11 -11
+12 -12
+13 -13
+14 -14
+15 -15
+16 -16
+17 -17
+18 -18
+19 -19
+20 -20
+21 -21
+22 -22
+23 -23
+24 -24
+25 -25
+26 -26
+27 -27
+28 -28
+29 -29
+30 -30
+31 -31
+32 -32
+33 -33
+34 -34
+35 -35
+36 -36
+37 -37
+38 -38
+39 -39
+40 -40
+41 -41
+42 -42
+43 -43
+44 -44
+45 -45
+46 -46
+47 -47
+48 -48
+49 -49
+50 -50
+51 -51
+52 -52
+53 -53
+54 -54
+55 -55
+56 -56
+57 -57
+58 -58
+59 -59
+60 -60
+61 -61
+62 -62
+63 -63
+64 -64
+65 -65
+66 -66
+67 -67
+68 -68
+69 -69
+70 -70
EOF
